6115 2147 0 495 486 485 481 478 475 474 472 471 467 466 464 455 452 451 448 445 444 441 440 434 432 431 428 427 425 424 419 417 416 413 411 408 406 405 404 403 398 396 395 393 392 387 385 383 381 378 370 358 354 351 350 344 339 337 336 335 331 330 329 325 323 322 317 310 309 307 305 303 302 300 296 284 283 282 281 278 276 263 261 259 258 255 253 247 245 241 235 232 231 226 225 224 222 219 218 216 215 214 210 209 208 207 206 205 202 201 195 194 192 187 186 183 178 176 175 173 172 170 169 167 164 159 148 144 137 134 133 132 131 129 126 125 122 120 117 116 112 105 104 102 90 87 82 81 80 78 75 73 70 69 67 56 55 53 52 50 48 43 38 37 36 34 30 27 24 19 17 16 12 11 10 9 5 4 